data/MCDM/NO_CORR/GEN_FROM_60/19_ITEMS_1000_GEN/K5019W15.KNP.mps
NAME          BLANK   
ROWS
 N  OBJROW
 L  R0000000
COLUMNS
    C0000000  OBJROW     -833.         R0000000  607.        
    C0000001  OBJROW     -290.         R0000000  972.        
    C0000002  OBJROW     -467.         R0000000  510.        
    C0000003  OBJROW     -932.         R0000000  260.        
    C0000004  OBJROW     -871.         R0000000  725.        
    C0000005  OBJROW     -564.         R0000000  174.        
    C0000006  OBJROW     -126.         R0000000  440.        
    C0000007  OBJROW     -294.         R0000000  785.        
    C0000008  OBJROW     -367.         R0000000  423.        
    C0000009  OBJROW     -860.         R0000000  475.        
    C0000010  OBJROW     -327.         R0000000  792.        
    C0000011  OBJROW     -682.         R0000000  355.        
    C0000012  OBJROW     -505.         R0000000  6.          
    C0000013  OBJROW     -442.         R0000000  428.        
    C0000014  OBJROW     -546.         R0000000  573.        
    C0000015  OBJROW     -308.         R0000000  423.        
    C0000016  OBJROW     -85.          R0000000  538.        
    C0000017  OBJROW     -470.         R0000000  35.         
    C0000018  OBJROW     -562.         R0000000  775.        
RHS
    RHS       R0000000  13564.      
BOUNDS
 BV BOUND     C0000000  1.          
 BV BOUND     C0000001  1.          
 BV BOUND     C0000002  1.          
 BV BOUND     C0000003  1.          
 BV BOUND     C0000004  1.          
 BV BOUND     C0000005  1.          
 BV BOUND     C0000006  1.          
 BV BOUND     C0000007  1.          
 BV BOUND     C0000008  1.          
 BV BOUND     C0000009  1.          
 BV BOUND     C0000010  1.          
 BV BOUND     C0000011  1.          
 BV BOUND     C0000012  1.          
 BV BOUND     C0000013  1.          
 BV BOUND     C0000014  1.          
 BV BOUND     C0000015  1.          
 BV BOUND     C0000016  1.          
 BV BOUND     C0000017  1.          
 BV BOUND     C0000018  1.          
ENDATA
