data/MCDM/NO_CORR/GEN_FROM_60/19_ITEMS_1000_GEN/K5019W15.KNP.txt
N 19
M 20
LC 19
LC 20
LC 21
LC 22
LC 23
LC 24
LC 25
LC 26
LC 27
LC 28
LC 29
LC 30
LC 31
LC 32
LC 33
LC 34
LC 35
LC 36
LC 37
LR 1
LR 2
LR 3
LR 4
LR 5
LR 6
LR 7
LR 8
LR 9
LR 10
LR 11
LR 12
LR 13
LR 14
LR 15
LR 16
LR 17
LR 18
LR 19
LR 20
LO -833
LO -290
LO -467
LO -932
LO -871
LO -564
LO -126
LO -294
LO -367
LO -860
LO -327
LO -682
LO -505
LO -442
LO -546
LO -308
LO -85
LO -470
LO -562
OS 1
IC 235
IC 374
IC 527
IC 101
IC 623
IC 716
IC 196
IC 459
IC 129
IC 409
IC 529
IC 778
IC 119
IC 979
IC 369
IC 309
IC 118
IC 845
IC 507
IB 4161
